num_asignaturas = 40;
num_salas = 3;
prioridad = [2, 3, 5, 2, 7, 10, 5, 1, 4, 5, 3, 4, 10, 1, 5, 1, 2, 5, 4, 5, 3, 3, 1, 5, 5, 6, 6, 7, 2, 3, 3, 1, 2, 7, 5, 4, 2, 4, 7, 4];
cantidad_de_alumnos = [71, 77, 45, 54, 47, 71, 67, 52, 68, 76, 56, 65, 71, 66, 52, 56, 43, 80, 40, 62, 63, 45, 68, 78, 62, 43, 41, 64, 71, 63, 74, 51, 52, 60, 71, 51, 40, 57, 51, 66];
capacidad = [69, 64, 67];
tipo_bloque = [1, 1, 1, 1, 1, 1, 0, 1, 1, 1, 0, 1, 1, 1, 0, 1, 0, 1, 1, 1, 1, 0, 1, 1, 1, 1, 0, 1, 0, 1, 1, 1, 0, 0, 1, 1, 1, 1, 1, 0];
bloques_restriccion = [|
 [(4, 2), (3, 6), (3, 3), (1, 3), (1, 1), (5, 1), (4, 6), (5, 4), (3, 4), (2, 4), (2, 6), (2, 1), (2, 5), (1, 6), (2, 2), (4, 5), (4, 3), (3, 2)],
 [(1, 5), (1, 3), (3, 3), (1, 2), (4, 2), (5, 5), (1, 4), (3, 5), (2, 1), (2, 5), (4, 5), (3, 1), (2, 4), (5, 2), (3, 4), (4, 4), (3, 6), (2, 2), (2, 3), (5, 4)],
 [(4, 1), (1, 6), (3, 4), (4, 2), (3, 1), (4, 5), (5, 1), (3, 5), (4, 4), (2, 3), (1, 5), (4, 3), (5, 6), (2, 2)],
 [(3, 1), (1, 1), (3, 6), (2, 5), (3, 5), (5, 6), (2, 1), (3, 3), (4, 2), (2, 4), (1, 4), (1, 2), (2, 2), (5, 4), (3, 2)],
 [(4, 4), (5, 5), (2, 6), (1, 5), (3, 4), (3, 1), (5, 1), (5, 2), (2, 1), (1, 4), (3, 5), (4, 2), (5, 3), (4, 1)],
 [(3, 6), (4, 5), (5, 4), (3, 1), (5, 1), (1, 5), (4, 2), (4, 1), (1, 1), (1, 3), (4, 6)],
 [(3, 7), (3, 5), (1, 2), (3, 4), (1, 7), (1, 5), (2, 7), (5, 3), (5, 1), (3, 1), (4, 1), (1, 4), (2, 2), (4, 2), (3, 3)],
 [(1, 2), (3, 5), (5, 4), (3, 2), (2, 5), (1, 3), (1, 5), (4, 5), (5, 2), (3, 3), (3, 4), (5, 5), (1, 1), (5, 6), (3, 1), (1, 6), (2, 4), (3, 6)],
 [(3, 4), (1, 6), (5, 1), (1, 2), (5, 4), (4, 3), (2, 6)],
 [(4, 1), (1, 2), (1, 5), (4, 5), (3, 1), (5, 4), (3, 4), (1, 1), (4, 3), (1, 4), (2, 2), (5, 5), (4, 6), (1, 6)],
 [(4, 7), (1, 1), (5, 4), (3, 1), (4, 3), (5, 3), (4, 6), (2, 1), (3, 7)],
 [(3, 2), (5, 1), (2, 6), (4, 6), (1, 3), (5, 6), (2, 1), (1, 1), (4, 4), (3, 6), (1, 2), (2, 5), (1, 4)],
 [(5, 2), (1, 1), (1, 3), (5, 1), (3, 4), (3, 1), (1, 2), (1, 5), (2, 4), (4, 3), (5, 6), (1, 4), (3, 3), (3, 2), (4, 2), (2, 1)],
 [(5, 3), (1, 1), (5, 2), (4, 5), (2, 3), (5, 5), (4, 3), (4, 2), (1, 5), (1, 4), (3, 6), (5, 4), (3, 4), (2, 5), (3, 5), (2, 6), (5, 1), (5, 6), (1, 3), (3, 2)],
 [(2, 1), (1, 7), (3, 7), (1, 3), (1, 6), (3, 1), (5, 2), (3, 6), (2, 3), (5, 4), (3, 4), (4, 3), (4, 2), (3, 3), (2, 2), (5, 5), (4, 4), (2, 6)],
 [(1, 6), (2, 1), (4, 2), (1, 2), (4, 6), (5, 6), (1, 3), (5, 2), (4, 3), (5, 4), (1, 1), (2, 4), (2, 2), (1, 5), (3, 6), (3, 4)],
 [(5, 2), (4, 4), (2, 3), (4, 2), (3, 4), (5, 1), (1, 4), (3, 6), (5, 7), (3, 1)],
 [(4, 3), (4, 6), (5, 3), (5, 2), (3, 4), (5, 1), (1, 2), (3, 6), (5, 5), (2, 3), (1, 5), (3, 3), (3, 2)],
 [(2, 5), (3, 2), (3, 1), (1, 5), (2, 6), (1, 3), (2, 1), (5, 4), (2, 3), (3, 3), (5, 5), (4, 6), (5, 6), (3, 6), (2, 2), (1, 4), (1, 6), (1, 1)],
 [(2, 5), (3, 5), (4, 1), (5, 1), (2, 3), (5, 5), (2, 2), (1, 3), (2, 1), (4, 6), (3, 2), (3, 4), (4, 2), (2, 6), (1, 1), (4, 4), (5, 4), (3, 1)],
 [(1, 2), (2, 5), (1, 6), (4, 5), (4, 6), (3, 5), (5, 1), (1, 3), (5, 6)],
 [(3, 2), (1, 6), (5, 7), (5, 3), (3, 3), (3, 4), (4, 6), (1, 2)],
 [(1, 6), (1, 5), (5, 6), (5, 3), (5, 2), (2, 4), (2, 2), (3, 2), (4, 2), (1, 1), (1, 2), (5, 5), (1, 3), (4, 1), (3, 1)],
 [(3, 1), (4, 5), (2, 4), (3, 6), (5, 3), (3, 5), (2, 1), (4, 6), (3, 4), (1, 3), (2, 5), (3, 2), (4, 4), (1, 1), (2, 6), (4, 1), (4, 3), (1, 4)],
 [(4, 6), (2, 1), (4, 2), (3, 2), (3, 6), (2, 2), (3, 4), (1, 4), (1, 6), (5, 2), (2, 5), (5, 5), (5, 1), (3, 5), (2, 3)],
 [(1, 6), (2, 1), (1, 1), (1, 4), (5, 2), (3, 5), (5, 1), (1, 5), (4, 6)],
 [(5, 4), (2, 2), (4, 6), (3, 6), (2, 7), (5, 6), (4, 2), (2, 1), (3, 2), (4, 5), (1, 1), (1, 3), (3, 4), (3, 1), (2, 3), (3, 5)],
 [(4, 5), (5, 2), (2, 1), (5, 6), (4, 1), (4, 2), (4, 3), (3, 2), (1, 4), (2, 6), (4, 6), (5, 4), (3, 1)],
 [(3, 1), (3, 3), (1, 6), (4, 4), (1, 4), (2, 3), (4, 6), (3, 4), (3, 7), (1, 1), (2, 1), (1, 2), (4, 1), (1, 7), (5, 3), (3, 6), (4, 7), (5, 5), (3, 2), (5, 6), (1, 3)],
 [(1, 1), (2, 1), (4, 6), (5, 2), (5, 4), (3, 5), (3, 4), (2, 6), (5, 5), (4, 4), (2, 3), (3, 1), (3, 2), (4, 5), (4, 1), (1, 3), (2, 4), (1, 5)],
 [(5, 6), (4, 5), (1, 2), (5, 3), (3, 2), (2, 6), (1, 4), (2, 1), (4, 6), (2, 5), (3, 5)],
 [(4, 1), (5, 3), (1, 2), (1, 6), (4, 6), (5, 1), (5, 4)],
 [(1, 6), (5, 7), (5, 5), (3, 3), (4, 4), (4, 5), (3, 7), (2, 3), (4, 3), (3, 4), (4, 7), (2, 7), (2, 2), (1, 4)],
 [(1, 3), (5, 3), (5, 1), (4, 6), (4, 3), (3, 6), (5, 7), (4, 1), (1, 1), (3, 7), (4, 2), (1, 2)],
 [(3, 6), (5, 6), (4, 6), (5, 4), (5, 1), (5, 5), (5, 2), (2, 3), (4, 5), (4, 3), (2, 1), (2, 2), (4, 4), (3, 5), (1, 6), (4, 1)],
 [(5, 6), (1, 3), (4, 2), (4, 3), (3, 2), (2, 1), (2, 2), (4, 4), (3, 5), (2, 5), (1, 2), (3, 6), (3, 1)],
 [(2, 1), (3, 5), (4, 2), (1, 4), (5, 1), (4, 1), (5, 5), (3, 2), (1, 1), (2, 3), (4, 3), (1, 5), (5, 3)],
 [(1, 4), (5, 2), (3, 4), (4, 3), (2, 4), (2, 6), (3, 1), (4, 1), (5, 3), (4, 5), (1, 6), (5, 6), (3, 2), (2, 2), (5, 4), (5, 1), (3, 3), (2, 1), (2, 5), (4, 2), (5, 5)],
 [(5, 1), (3, 6), (5, 6), (3, 2), (2, 5), (2, 6), (4, 1), (2, 1), (3, 1), (1, 4), (4, 5), (2, 4), (3, 4), (5, 4), (1, 1), (4, 2), (4, 3)],
 [(4, 3), (2, 3), (1, 2), (4, 7), (1, 4), (2, 6), (3, 1), (3, 4), (3, 5), (1, 7), (4, 6)],
|];
